[ti. 04. april 14:07:06 +0200 2023]  ./input/alternate_g_np/50-2-4.gcc
Set parameter Username
Academic license - for non-commercial use only - expires 2024-03-28
Set parameter TimeLimit to value 1800
Set parameter PreCrush to value 1
Set parameter LazyConstraints to value 1
Gurobi Optimizer version 10.0.1 build v10.0.1rc0 (linux64)

CPU model: AMD Ryzen 9 5950X 16-Core Processor, instruction set [SSE2|AVX|AVX2]
Thread count: 16 physical cores, 32 logical processors, using up to 32 threads

Optimize a model with 58 rows, 450 columns and 1250 nonzeros
Model fingerprint: 0x5bab75cc
Variable types: 0 continuous, 450 integer (450 binary)
Coefficient statistics:
  Matrix range     [1e+00, 1e+00]
  Objective range  [1e+00, 1e+02]
  Bounds range     [1e+00, 1e+00]
  RHS range        [1e+00, 1e+00]
Presolve time: 0.00s
Presolved: 58 rows, 450 columns, 1250 nonzeros
Variable types: 0 continuous, 450 integer (450 binary)

Root relaxation: objective 2.355000e+03, 8 iterations, 0.00 seconds (0.00 work units)

    Nodes    |    Current Node    |     Objective Bounds      |     Work
 Expl Unexpl |  Obj  Depth IntInf | Incumbent    BestBd   Gap | It/Node Time

     0     0 2355.00000    0    8          - 2355.00000      -     -    0s
     0     0 2355.00000    0    -          - 2355.00000      -     -    0s
     0     0 2355.00000    0   12          - 2355.00000      -     -    0s
     0     0 2192.00000    0    -          - 2192.00000      -     -    0s
     0     0 2192.00000    0   21          - 2192.00000      -     -    0s
     0     0 2087.00000    0   31          - 2087.00000      -     -    0s
     0     0 2070.00000    0   40          - 2070.00000      -     -    0s
     0     0 2066.00000    0   47          - 2066.00000      -     -    0s
     0     0 2063.42698    0   50          - 2063.42698      -     -    0s
     0     0 2054.38455    0   63          - 2054.38455      -     -    0s
     0     2 2049.35348    0   83          - 2049.35348      -     -    0s
H  113   114                    1430.0000000 1852.67775  29.6%   271    0s
H  114   132                    1482.0000000 1852.67775  25.0%   270    0s
H  118   132                    1483.0000000 1849.85970  24.7%   264    0s
H  242   240                    1519.0000000 1849.50908  21.8%   175    0s
H  494   431                    1573.0000000 1849.50908  17.6%   119    0s
H 1040   820                    1587.0000000 1849.50908  16.5%  90.2    1s
H 2171  1402                    1597.0000000 1684.00000  5.45%  73.0    2s
H 2176  1334                    1674.0000000 1684.00000  0.60%  72.9    2s

Cutting planes:
  User: 397
  Gomory: 17
  Flow cover: 2
  Zero half: 1
  Lazy constraints: 18

Explored 2351 nodes (188705 simplex iterations) in 3.90 seconds (8.10 work units)
Thread count was 32 (of 32 available processors)

Solution count 8: 1674 1597 1587 ... 1430

Optimal solution found (tolerance 1.00e-04)
Best objective 1.674000000000e+03, best bound 1.674000000000e+03, gap 0.0000%

User-callback calls 5991, time in user-callback 0.20 sec
Minimal separator inequalities added: 2115
Indegree inequalities added: 15959
Passed solution check
[ti. 04. april 14:07:10 +0200 2023]  done

